<number of tasks>
50

<cycle time>
1000

<order strength>
0.601


<task times>
1 39
2 26
3 226
4 138
5 38
6 204
7 142
8 44
9 146
10 115
11 28
12 183
13 134
14 50
15 131
16 87
17 26
18 80
19 59
20 274
21 169
22 153
23 118
24 267
25 289
26 142
27 45
28 85
29 269
30 64
31 138
32 208
33 170
34 232
35 126
36 82
37 194
38 58
39 281
40 77
41 78
42 216
43 75
44 118
45 225
46 69
47 62
48 31
49 22
50 257

<precedence relations>
1,7
2,8
3,9
4,10
5,11
6,12
7,14
8,14
9,13
10,15
11,14
12,14
12,15
12,16
12,17
13,19
14,18
14,21
14,22
14,23
15,23
16,20
16,23
17,23
18,24
19,28
20,25
21,26
22,27
23,28
23,29
23,30
24,31
25,34
26,32
27,33
28,34
28,35
29,34
29,35
30,34
30,35
31,36
32,37
33,37
34,39
34,40
35,37
35,38
36,38
37,39
37,40
37,41
38,42
38,43
40,43
41,43
42,45
42,46
43,44
43,47
43,50
44,48
44,49
45,47
45,50
46,49

<end>
